rc101_3
0 95 70 57 91 63 80 102 64 92 18 20 21 22 52 19 17 16 15 14 79 82 30 28 26 53 23 24 54 25 27 29 2 78 84 12 13 51 9 50 10 8 6 7 11 65 83 58 93 60 105 75 48 45 41 40 42 43 44 46 47 49 1 66 77 76 32 31 33 35 34 36 0